c Reduced graph for GEOM110 generated by Cyril Grelier
p edge 110 638
e 1 2
e 1 6
e 1 11
e 1 13
e 1 17
e 1 19
e 1 22
e 1 28
e 1 37
e 1 45
e 1 49
e 1 63
e 1 66
e 1 74
e 1 75
e 1 87
e 1 104
e 1 105
e 1 107
e 2 6
e 2 11
e 2 13
e 2 17
e 2 19
e 2 21
e 2 22
e 2 28
e 2 37
e 2 45
e 2 66
e 2 74
e 2 75
e 2 87
e 2 104
e 2 105
e 2 107
e 3 10
e 3 18
e 3 26
e 3 42
e 3 43
e 3 46
e 3 58
e 3 60
e 3 61
e 3 64
e 3 78
e 3 79
e 3 82
e 3 94
e 3 102
e 4 5
e 4 8
e 4 18
e 4 20
e 4 23
e 4 27
e 4 38
e 4 46
e 4 51
e 4 59
e 4 60
e 4 61
e 4 82
e 4 84
e 4 97
e 5 20
e 5 23
e 5 25
e 5 38
e 5 46
e 5 50
e 5 51
e 5 60
e 5 69
e 5 71
e 5 84
e 5 86
e 5 96
e 5 97
e 6 7
e 6 17
e 6 22
e 6 30
e 6 32
e 6 36
e 6 37
e 6 45
e 6 49
e 6 63
e 6 74
e 6 99
e 7 8
e 7 27
e 7 30
e 7 32
e 7 36
e 7 48
e 7 59
e 7 74
e 7 83
e 7 84
e 7 97
e 7 99
e 8 23
e 8 27
e 8 30
e 8 32
e 8 36
e 8 59
e 8 61
e 8 83
e 8 84
e 8 97
e 8 99
e 9 12
e 9 14
e 9 15
e 9 47
e 9 53
e 9 55
e 9 70
e 9 80
e 9 81
e 9 100
e 9 106
e 9 108
e 10 26
e 10 42
e 10 43
e 10 46
e 10 50
e 10 60
e 10 64
e 10 78
e 10 79
e 10 94
e 10 102
e 11 13
e 11 37
e 11 49
e 11 63
e 11 66
e 11 77
e 11 87
e 11 89
e 11 105
e 11 107
e 12 14
e 12 24
e 12 33
e 12 47
e 12 54
e 12 55
e 12 70
e 12 80
e 12 100
e 12 101
e 12 108
e 13 37
e 13 49
e 13 63
e 13 66
e 13 77
e 13 87
e 13 105
e 13 107
e 14 15
e 14 47
e 14 53
e 14 55
e 14 70
e 14 81
e 14 100
e 14 106
e 14 108
e 15 47
e 15 55
e 15 63
e 15 81
e 15 89
e 15 100
e 16 29
e 16 35
e 16 52
e 16 76
e 16 98
e 16 110
e 17 19
e 17 21
e 17 22
e 17 28
e 17 31
e 17 39
e 17 45
e 17 74
e 17 75
e 17 87
e 17 104
e 17 105
e 17 109
e 18 27
e 18 36
e 18 48
e 18 58
e 18 59
e 18 60
e 18 61
e 18 62
e 18 68
e 18 82
e 18 83
e 18 90
e 18 97
e 19 21
e 19 22
e 19 28
e 19 31
e 19 39
e 19 44
e 19 45
e 19 73
e 19 74
e 19 75
e 19 104
e 19 109
e 20 23
e 20 25
e 20 34
e 20 38
e 20 46
e 20 50
e 20 51
e 20 60
e 20 69
e 20 71
e 20 86
e 20 96
e 20 97
e 21 22
e 21 28
e 21 31
e 21 39
e 21 44
e 21 45
e 21 57
e 21 73
e 21 75
e 21 104
e 21 109
e 22 36
e 22 39
e 22 45
e 22 48
e 22 74
e 22 75
e 22 104
e 22 105
e 23 27
e 23 38
e 23 51
e 23 53
e 23 84
e 23 86
e 23 97
e 24 33
e 24 47
e 24 54
e 24 56
e 24 80
e 24 91
e 24 92
e 24 93
e 24 101
e 24 103
e 25 34
e 25 38
e 25 46
e 25 50
e 25 69
e 25 71
e 25 96
e 26 42
e 26 43
e 26 64
e 26 78
e 26 79
e 26 94
e 26 102
e 27 32
e 27 36
e 27 48
e 27 59
e 27 60
e 27 61
e 27 62
e 27 83
e 27 84
e 27 97
e 27 99
e 28 31
e 28 45
e 28 57
e 28 66
e 28 87
e 28 104
e 28 105
e 28 107
e 28 109
e 29 35
e 29 40
e 29 41
e 29 52
e 29 65
e 29 67
e 29 76
e 29 85
e 29 88
e 29 98
e 29 106
e 29 110
e 30 32
e 30 36
e 30 37
e 30 49
e 30 63
e 30 74
e 30 81
e 30 99
e 31 39
e 31 45
e 31 57
e 31 73
e 31 75
e 31 104
e 31 109
e 32 36
e 32 59
e 32 63
e 32 83
e 32 84
e 32 99
e 33 47
e 33 54
e 33 56
e 33 91
e 33 93
e 33 101
e 33 103
e 34 38
e 34 50
e 34 69
e 34 71
e 34 86
e 34 95
e 34 96
e 35 52
e 35 76
e 35 95
e 35 98
e 35 110
e 36 48
e 36 59
e 36 62
e 36 68
e 36 74
e 36 75
e 36 83
e 36 90
e 36 99
e 37 49
e 37 63
e 37 66
e 37 77
e 37 87
e 37 89
e 37 105
e 37 107
e 38 50
e 38 51
e 38 53
e 38 69
e 38 84
e 38 86
e 38 95
e 38 97
e 39 44
e 39 45
e 39 72
e 39 73
e 39 75
e 39 104
e 39 109
e 40 41
e 40 52
e 40 65
e 40 67
e 40 70
e 40 76
e 40 85
e 40 88
e 40 98
e 40 106
e 40 108
e 41 53
e 41 65
e 41 67
e 41 76
e 41 85
e 41 86
e 41 88
e 41 98
e 41 106
e 42 43
e 42 64
e 42 78
e 42 79
e 42 94
e 42 102
e 43 46
e 43 64
e 43 78
e 43 79
e 43 102
e 44 48
e 44 62
e 44 68
e 44 72
e 44 75
e 44 90
e 45 74
e 45 75
e 45 104
e 45 105
e 45 109
e 46 50
e 46 60
e 46 61
e 46 64
e 46 71
e 46 78
e 46 82
e 46 97
e 47 54
e 47 55
e 47 70
e 47 80
e 47 81
e 47 91
e 47 100
e 47 101
e 47 108
e 48 59
e 48 62
e 48 68
e 48 72
e 48 74
e 48 75
e 48 83
e 48 90
e 49 63
e 49 66
e 49 77
e 49 87
e 49 89
e 49 105
e 49 107
e 50 51
e 50 60
e 50 64
e 50 69
e 50 71
e 50 96
e 51 53
e 51 60
e 51 69
e 51 84
e 51 86
e 51 97
e 52 65
e 52 67
e 52 76
e 52 85
e 52 88
e 52 95
e 52 98
e 52 110
e 53 65
e 53 85
e 53 86
e 53 106
e 54 56
e 54 80
e 54 91
e 54 93
e 54 101
e 54 103
e 55 81
e 55 89
e 55 92
e 55 100
e 56 91
e 56 92
e 56 93
e 56 101
e 56 103
e 57 73
e 57 104
e 57 109
e 58 61
e 58 68
e 58 82
e 58 102
e 59 61
e 59 62
e 59 68
e 59 83
e 59 84
e 59 90
e 59 97
e 59 99
e 60 61
e 60 64
e 60 82
e 60 84
e 60 97
e 61 62
e 61 82
e 61 83
e 61 84
e 61 97
e 62 68
e 62 72
e 62 74
e 62 75
e 62 83
e 62 90
e 63 77
e 63 81
e 63 89
e 63 107
e 64 71
e 64 78
e 64 79
e 64 102
e 65 67
e 65 76
e 65 85
e 65 86
e 65 88
e 65 98
e 65 106
e 66 77
e 66 87
e 66 105
e 66 107
e 67 76
e 67 85
e 67 88
e 67 98
e 67 106
e 67 110
e 68 72
e 68 83
e 68 90
e 69 85
e 69 86
e 69 95
e 70 80
e 70 88
e 70 106
e 70 108
e 71 96
e 72 75
e 72 90
e 73 104
e 73 109
e 74 75
e 74 83
e 74 90
e 74 99
e 74 104
e 75 90
e 75 104
e 76 85
e 76 88
e 76 98
e 76 106
e 76 110
e 77 87
e 77 89
e 77 92
e 77 105
e 77 107
e 78 79
e 78 94
e 78 102
e 79 94
e 79 102
e 80 100
e 80 101
e 80 108
e 81 89
e 81 100
e 83 84
e 83 90
e 83 99
e 84 97
e 84 99
e 85 86
e 85 88
e 85 98
e 85 106
e 86 95
e 87 105
e 87 107
e 88 98
e 88 106
e 88 108
e 89 92
e 89 100
e 89 103
e 91 92
e 91 93
e 91 101
e 91 103
e 92 93
e 92 103
e 93 101
e 93 103
e 94 102
e 95 110
e 98 110
e 100 101
e 100 108
e 104 109
e 105 107
e 106 108
